param total := 100 ;

set ID := A B C D E F G H I J K L;
param: profit	cost 	f_min 	f_max :=
	A	30 		16		0		1
	B	25		15		0		1
	C	5		2		0		1
	D	9		4		0		1
	E	11		4		0		1
	F	7		3		0		1
	G	14		9		0		1
	H	19		12		0		1
	I	40		29		0		1
	J	29		20		0		1
	K	30		18		0		1
	L	34		25		0		1;
